c User generated cnf file
p cnf 10 26
7 6 -4 0 
5 -6 3 0 
4 -3 7 0 
10 2 -4 0 
10 3 -3 0 
3 10 -1 0 
7 -3 6 0 
6 3 -7 0 
8 4 -1 0 
1 -9 1 0 
8 5 -1 0 
4 10 -9 0 
1 -1 5 0 
7 2 -1 0 
3 -9 1 0 
3 -7 9 0 
8 7 -4 0 
5 -10 7 0 
5 -10 7 0 
10 -4 4 0 
8 7 -1 0 
8 -7 1 0 
3 -4 9 0 
5 -6 5 0 
6 -9 7 0 
5 3 -7 0 
